90 363013
70 79 78 24 76 62 55 84 32 64 72 17 51 90 45 29 3 28 7 46 10 20 52 56 8 19 48 83 43 18 53 69 71 35 82 50 16 5 54 68 12 34 73 85 74 26 63 44 86 49 66 39 88 80 11 37 65 13 89 42 58 41 31 59 15 81 75 36 4 67 47 21 22 77 6 23 9 2 14 1 57 27 30 87 38 33 40 60 25 61 
